************************************************************************
file with basedata            : cm142_.bas
initial value random generator: 296612543
************************************************************************
projects                      :  1
jobs (incl. supersource/sink ):  18
horizon                       :  93
RESOURCES
  - renewable                 :  2   R
  - nonrenewable              :  2   N
  - doubly constrained        :  0   D
************************************************************************
PROJECT INFORMATION:
pronr.  #jobs rel.date duedate tardcost  MPM-Time
    1     16      0       37        1       37
************************************************************************
PRECEDENCE RELATIONS:
jobnr.    #modes  #successors   successors
   1        1          3           2   3   4
   2        1          3           5   6   7
   3        1          3           6  16  17
   4        1          3           6   9  12
   5        1          3           9  14  15
   6        1          1          15
   7        1          3           8   9  10
   8        1          1          17
   9        1          1          11
  10        1          3          11  12  13
  11        1          1          16
  12        1          2          14  15
  13        1          2          14  16
  14        1          1          17
  15        1          1          18
  16        1          1          18
  17        1          1          18
  18        1          0        
************************************************************************
REQUESTS/DURATIONS:
jobnr. mode duration  R 1  R 2  N 1  N 2
------------------------------------------------------------------------
  1      1     0       0    0    0    0
  2      1     1       0    5    2    8
  3      1     8       8    0    7    6
  4      1    10       0    5    8    9
  5      1     7       0    3    8    6
  6      1     4       8    0    9    7
  7      1     6       4    0    4    9
  8      1     1       0    5    2    1
  9      1     7       3    0    1    7
 10      1     9       0    6    2    6
 11      1     7       0    4    2    4
 12      1     4       6    0    4    7
 13      1     4       9    0    7    5
 14      1     9       4    0    4    4
 15      1     2       0    6    4    7
 16      1     6       0   10    5    6
 17      1     8      10    0    5    7
 18      1     0       0    0    0    0
************************************************************************
RESOURCEAVAILABILITIES:
  R 1  R 2  N 1  N 2
   14   15   74   99
************************************************************************
